\ENCODING=ISO-8859-1
\Problem name: instances

Maximize
 obj:
Subject To
 c1: 55 x2 + 19 x3 + 34 x4 + 34 x5 + 6 x6 + x7 + 46 x8 - 71 x9 + 77 x10 <= 178
 c2: 76 x1 + 99 x3 + 80 x4 + 52 x5 + 17 x6 + 83 x7 + x8 - 75 x9 + x10 <= 238
 c3: - 48 x2 + 98 x4 + 92 x5 + 100 x6 + 6 x7 + 87 x8 + 74 x9 + 7 x10 <= 198
 c4: 48 x2 + 15 x3 + 15 x5 + 19 x6 - 67 x8 + 57 x9 + 84 x10 <= 138
 c5: 75 x1 + 72 x2 + 38 x3 + 30 x4 + 21 x5 + 71 x6 + 16 x7 - x8 + 17 x9 <= 302
Bounds
      x1 >= 0
      x2 >= 0
      x3 >= 0
      x4 >= 0
      x5 >= 0
      x6 >= 0
      x7 >= 0
      x8 >= 0
      x9 >= 0
      x10 >= 0
Generals
 x1  x2  x3  x4  x5  x6  x7  x8  x9  x10 
End
